
Gurobi 11.0.0 (win64) logging started Sat May 18 08:58:41 2024

Set parameter LogFile to value "./Results/StripPacking-SequencePairBranchRuns/Logs/SBspbL-010-StripPacking-10.log"
Set parameter TimeLimit to value 10800
Set parameter Cuts to value 0
Set parameter Presolve to value 1
Set parameter Heuristics to value 0
Set parameter LPWarmStart to value 2
Gurobi Optimizer version 11.0.0 build v11.0.0rc2 (win64 - Windows 10.0 (19045.2))

CPU model: Intel(R) Core(TM) i9-10980XE CPU @ 3.00GHz, instruction set [SSE2|AVX|AVX2|AVX512]
Thread count: 18 physical cores, 36 logical processors, using up to 18 threads

Optimize a model with 1030 rows, 111 columns and 3260 nonzeros
Model fingerprint: 0x20defd6d
Variable types: 21 continuous, 90 integer (90 binary)
Coefficient statistics:
  Matrix range     [1e+00, 1e+04]
  Objective range  [1e+00, 1e+00]
  Bounds range     [1e+00, 1e+04]
  RHS range        [1e+00, 1e+04]
Using branch priorities.

User MIP start produced solution with objective 50 (0.02s)
Loaded user MIP start with objective 50

Presolve removed 90 rows and 0 columns
Presolve time: 0.00s
Presolved: 940 rows, 111 columns, 2990 nonzeros
Variable types: 21 continuous, 90 integer (90 binary)

Root relaxation: objective 3.500000e+01, 76 iterations, 0.00 seconds (0.00 work units)

    Nodes    |    Current Node    |     Objective Bounds      |     Work
 Expl Unexpl |  Obj  Depth IntInf | Incumbent    BestBd   Gap | It/Node Time

     0     0   35.00000    0    4   50.00000   35.00000  30.0%     -    0s
     0     0   35.00000    0    4   50.00000   35.00000  30.0%     -    0s
     0     2   35.00000    0    4   50.00000   35.00000  30.0%     -    0s
*   30    30               4      46.0000000   35.00000  23.9%  13.0    0s
*  296   263              17      45.0000000   35.00000  22.2%  12.2    0s
*  444   328              19      42.0000000   35.00000  16.7%  11.0    0s
* 1521   460              32      41.0000000   35.00000  14.6%   9.6    0s
* 2996   662              33      40.0000000   35.00000  12.5%   8.7    0s
* 4782   616              28      39.0000000   38.00000  2.56%   7.8    2s

Explored 13593 nodes (83965 simplex iterations) in 4.82 seconds (0.30 work units)
Thread count was 18 (of 36 available processors)

Solution count 7: 39 40 41 ... 50

Optimal solution found (tolerance 1.00e-04)
Best objective 3.900000000000e+01, best bound 3.900000000000e+01, gap 0.0000%

Gurobi 11.0.0 (win64) logging started Sat May 18 08:59:03 2024

Set parameter LogFile to value "./Results/StripPacking-SequencePairBranchRuns/Logs/SBspbL-010-StripPacking-10.log"
Set parameter TimeLimit to value 10800
Set parameter Cuts to value 0
Set parameter Presolve to value 1
Set parameter Heuristics to value 0
Set parameter LPWarmStart to value 2
Gurobi Optimizer version 11.0.0 build v11.0.0rc2 (win64 - Windows 10.0 (19045.2))

CPU model: Intel(R) Core(TM) i9-10980XE CPU @ 3.00GHz, instruction set [SSE2|AVX|AVX2|AVX512]
Thread count: 18 physical cores, 36 logical processors, using up to 18 threads

Optimize a model with 1030 rows, 111 columns and 3260 nonzeros
Model fingerprint: 0x20defd6d
Variable types: 21 continuous, 90 integer (90 binary)
Coefficient statistics:
  Matrix range     [1e+00, 1e+04]
  Objective range  [1e+00, 1e+00]
  Bounds range     [1e+00, 1e+04]
  RHS range        [1e+00, 1e+04]
Using branch priorities.

User MIP start produced solution with objective 50 (0.00s)
Loaded user MIP start with objective 50

Presolve removed 90 rows and 0 columns
Presolve time: 0.00s
Presolved: 940 rows, 111 columns, 2990 nonzeros
Variable types: 21 continuous, 90 integer (90 binary)

Root relaxation: objective 3.500000e+01, 76 iterations, 0.00 seconds (0.00 work units)

    Nodes    |    Current Node    |     Objective Bounds      |     Work
 Expl Unexpl |  Obj  Depth IntInf | Incumbent    BestBd   Gap | It/Node Time

     0     0   35.00000    0    4   50.00000   35.00000  30.0%     -    0s
     0     0   35.00000    0    4   50.00000   35.00000  30.0%     -    0s
     0     2   35.00000    0    4   50.00000   35.00000  30.0%     -    0s
*   30    30               4      46.0000000   35.00000  23.9%  13.0    0s
*  296   263              17      45.0000000   35.00000  22.2%  12.2    0s
*  444   328              19      42.0000000   35.00000  16.7%  11.0    0s
* 1521   460              32      41.0000000   35.00000  14.6%   9.6    0s
* 2996   662              33      40.0000000   35.00000  12.5%   8.7    0s
* 4782   616              28      39.0000000   38.00000  2.56%   7.8    0s

Explored 13593 nodes (83965 simplex iterations) in 0.35 seconds (0.30 work units)
Thread count was 18 (of 36 available processors)

Solution count 7: 39 40 41 ... 50

Optimal solution found (tolerance 1.00e-04)
Best objective 3.900000000000e+01, best bound 3.900000000000e+01, gap 0.0000%
